(declare-fun var0 () String)
(declare-fun var1 () String)
(declare-fun var2 () String)
(declare-fun var3 () String)
(declare-fun var4 () String)
(declare-fun var5 () String)
(declare-fun var6 () String)
(declare-fun var7 () String)
(declare-fun var8 () String)
(declare-fun var9 () String)
(declare-fun var10 () String)
(declare-fun var11 () String)
(declare-fun var12 () String)
(declare-fun var13 () String)
(declare-fun var14 () String)
(declare-fun var15 () String)
(declare-fun var16 () String)
(declare-fun var17 () String)
(declare-fun var18 () String)
(declare-fun var19 () String)
(declare-fun var20 () String)
(declare-fun var21 () String)
(declare-fun var22 () String)
(declare-fun var23 () String)
(declare-fun var24 () String)
(declare-fun var25 () String)
(declare-fun var26 () String)
(declare-fun var27 () String)
(declare-fun var28 () String)
(declare-fun var29 () String)
(declare-fun var30 () String)
(declare-fun var31 () String)
(declare-fun var32 () String)
(declare-fun var33 () String)
(declare-fun var34 () String)
(declare-fun var35 () String)
(declare-fun var36 () String)
(declare-fun var37 () String)
(declare-fun var38 () String)
(declare-fun var39 () String)
(declare-fun var40 () String)
(declare-fun var41 () String)
(declare-fun var42 () String)
(declare-fun var43 () String)
(declare-fun var44 () String)
(declare-fun var45 () String)
(declare-fun var46 () String)
(declare-fun var47 () String)
(declare-fun var48 () String)
(declare-fun var49 () String)
(declare-fun var50 () String)
(declare-fun var51 () String)
(declare-fun var52 () String)
(declare-fun var53 () String)
(declare-fun var54 () String)
(declare-fun var55 () String)
(declare-fun var56 () String)
(declare-fun var57 () String)
(declare-fun var58 () String)
(declare-fun var59 () String)
(declare-fun var60 () String)
(assert (= var0 (Concat var1 var2)))
(assert (= var2 (Concat var3 var4)))
(assert (= var4 (Concat var5 var6)))
(assert (= var6 (Concat var7 var8)))
(assert (= var8 (Concat var9 var10)))
(assert (= var10 (Concat var11 var12)))
(assert (= var12 (Concat var13 var14)))
(assert (= var14 (Concat var15 var16)))
(assert (= var16 (Concat var17 var18)))
(assert (= var18 (Concat var19 var20)))
(assert (= var20 (Concat var21 var22)))
(assert (= var22 (Concat var23 var24)))
(assert (= var24 (Concat var25 var26)))
(assert (= var26 (Concat var27 var28)))
(assert (= var28 (Concat var29 var30)))
(assert (= var30 (Concat var31 var32)))
(assert (= var32 (Concat var33 var34)))
(assert (= var34 (Concat var35 var36)))
(assert (= var36 (Concat var37 var38)))
(assert (= var38 (Concat var39 var40)))
(assert (= var40 (Concat var41 var42)))
(assert (= var42 (Concat var43 var44)))
(assert (= var44 (Concat var45 var46)))
(assert (= var46 (Concat var47 var48)))
(assert (= var48 (Concat var49 var50)))
(assert (= var50 (Concat var51 var52)))
(assert (= var52 (Concat var53 var54)))
(assert (= var54 (Concat var55 var56)))
(assert (= var56 (Concat var57 var58)))
(assert (= var58 (Concat var59 var60)))
(assert (= var0 "solution"))
(assert (= "P" (CharAt var15 516)))
(assert (= "G" (CharAt var37 927)))
(assert (= "G" (CharAt var36 220)))
(assert (= "D" (CharAt var48 807)))
(assert (= ";" (CharAt var9 393)))
(assert (= ">" (CharAt var24 880)))
(assert (= "y" (CharAt var11 245)))
(assert (= "#" (CharAt var42 60)))
(assert (= "P" (CharAt var20 885)))
(assert (= "!" (CharAt var16 11)))
(assert (= "." (CharAt var8 612)))
(assert (= "X" (CharAt var60 260)))
(assert (= "5" (CharAt var10 401)))
(assert (= "c" (CharAt var33 858)))
(assert (= "Z" (CharAt var16 584)))
(assert (= "a" (CharAt var60 742)))
(assert (= "-" (CharAt var16 642)))
(assert (= "/" (CharAt var26 704)))
(assert (= "}" (CharAt var35 322)))
(assert (= "Q" (CharAt var1 330)))
(assert (= "D" (CharAt var16 935)))
(assert (= "." (CharAt var27 488)))
(assert (= "q" (CharAt var30 181)))
(assert (= "b" (CharAt var15 753)))
(assert (= "1" (CharAt var55 925)))
(assert (= ";" (CharAt var29 2)))
(assert (= "@" (CharAt var43 851)))
(assert (= "P" (CharAt var20 634)))
(assert (= "z" (CharAt var45 780)))
(assert (= "W" (CharAt var15 326)))
(assert (= "u" (CharAt var55 237)))
(assert (= "[" (CharAt var49 498)))
(assert (= "V" (CharAt var14 954)))
(assert (= "t" (CharAt var32 964)))
(assert (= "r" (CharAt var1 454)))
(assert (= "7" (CharAt var39 791)))
(assert (= ";" (CharAt var57 376)))
(assert (= ":" (CharAt var16 963)))
(assert (= "B" (CharAt var16 959)))
(assert (= "w" (CharAt var15 101)))
(assert (= "0" (CharAt var28 476)))
(assert (= "7" (CharAt var6 840)))
(assert (= "U" (CharAt var44 667)))
(assert (= "Y" (CharAt var5 831)))
(assert (= "X" (CharAt var5 822)))
(assert (= "`" (CharAt var28 48)))
(assert (= "_" (CharAt var52 410)))
(assert (= "#" (CharAt var44 948)))
(assert (= "3" (CharAt var8 107)))
(assert (= "h" (CharAt var56 690)))
(assert (= "\"" (CharAt var32 947)))
(assert (= "m" (CharAt var35 508)))
(assert (= "2" (CharAt var40 638)))
(assert (= "O" (CharAt var57 780)))
(assert (= "H" (CharAt var17 237)))
(assert (= "8" (CharAt var20 334)))
(assert (= ">" (CharAt var41 494)))
(assert (= ">" (CharAt var29 28)))
(assert (= "5" (CharAt var2 490)))
(assert (= "E" (CharAt var7 865)))
(assert (= "]" (CharAt var7 548)))
(assert (= "_" (CharAt var22 453)))
(assert (= "A" (CharAt var41 32)))
(assert (= "Y" (CharAt var58 808)))
(assert (= "k" (CharAt var13 350)))
(assert (= "h" (CharAt var26 450)))
(assert (= ":" (CharAt var39 604)))
(assert (= "f" (CharAt var20 768)))
(assert (= "i" (CharAt var46 496)))
(assert (= "1" (CharAt var60 272)))
(assert (= "E" (CharAt var6 850)))
(assert (= "t" (CharAt var36 792)))
(assert (= "t" (CharAt var57 167)))
(assert (= "+" (CharAt var30 696)))
(assert (= "A" (CharAt var23 345)))
(assert (= "u" (CharAt var40 212)))
(assert (= "L" (CharAt var12 76)))
(assert (= "=" (CharAt var4 124)))
(assert (= "z" (CharAt var33 458)))
(assert (= "G" (CharAt var20 975)))
(assert (= "(" (CharAt var46 91)))
(assert (= "8" (CharAt var59 8)))
(assert (= "M" (CharAt var3 212)))
(assert (= "T" (CharAt var46 282)))
(assert (= "$" (CharAt var5 182)))
(assert (= "k" (CharAt var44 481)))
(assert (= "^" (CharAt var20 672)))
(assert (= "s" (CharAt var44 836)))
(assert (= "@" (CharAt var59 37)))
(assert (= "S" (CharAt var30 383)))
(assert (= "c" (CharAt var52 556)))
(assert (= "K" (CharAt var16 678)))
(assert (= "B" (CharAt var21 385)))
(assert (= ")" (CharAt var39 153)))
(assert (= "$" (CharAt var60 322)))
(assert (= "d" (CharAt var2 876)))
(assert (= "p" (CharAt var27 715)))
(assert (= "P" (CharAt var54 721)))
(assert (= "2" (CharAt var30 61)))
(assert (= "o" (CharAt var58 186)))
(assert (= "I" (CharAt var43 803)))
(assert (= "]" (CharAt var47 311)))
(assert (= "," (CharAt var2 832)))
(assert (= "m" (CharAt var38 5)))
(assert (= "T" (CharAt var31 715)))
(assert (= "/" (CharAt var46 488)))
(assert (= "J" (CharAt var4 828)))
(assert (= "3" (CharAt var5 755)))
(assert (= "g" (CharAt var9 315)))
(assert (= "\"" (CharAt var36 764)))
(assert (= "9" (CharAt var29 464)))
(assert (= "z" (CharAt var9 501)))
(assert (= "E" (CharAt var30 652)))
(assert (= "e" (CharAt var32 716)))
(assert (= "6" (CharAt var44 135)))
(assert (= "." (CharAt var41 497)))
(assert (= "v" (CharAt var48 86)))
(assert (= "Q" (CharAt var41 654)))
(assert (= "@" (CharAt var10 31)))
(assert (= "9" (CharAt var0 257)))
(assert (= "Z" (CharAt var31 899)))
(assert (= "5" (CharAt var19 540)))
(assert (= "%" (CharAt var36 803)))
(assert (= "P" (CharAt var44 562)))
(assert (= ";" (CharAt var44 523)))
(assert (= "!" (CharAt var8 968)))
(assert (= "8" (CharAt var51 746)))
(assert (= "b" (CharAt var4 518)))
(assert (= "F" (CharAt var45 171)))
(assert (= "Y" (CharAt var37 25)))
(assert (= "m" (CharAt var38 975)))
(assert (= "D" (CharAt var20 391)))
(assert (= "'" (CharAt var8 118)))
(assert (= "^" (CharAt var12 107)))
(assert (= "\\" (CharAt var12 825)))
(assert (= "S" (CharAt var53 433)))
(assert (= "'" (CharAt var2 238)))
(assert (= "\\" (CharAt var1 27)))
(assert (= "*" (CharAt var5 936)))
(assert (= "U" (CharAt var24 910)))
(assert (= "\\" (CharAt var32 879)))
(assert (= ":" (CharAt var50 525)))
(assert (= "u" (CharAt var6 390)))
(assert (= "," (CharAt var45 622)))
(assert (= "{" (CharAt var46 172)))
(assert (= "I" (CharAt var24 186)))
(assert (= "#" (CharAt var35 794)))
(assert (= "%" (CharAt var50 172)))
(assert (= "," (CharAt var49 471)))
(assert (= "Y" (CharAt var21 310)))
(assert (= "E" (CharAt var41 718)))
(assert (= "T" (CharAt var47 711)))
(assert (= "a" (CharAt var36 184)))
(assert (= "0" (CharAt var12 677)))
(assert (= "s" (CharAt var45 971)))
(assert (= "4" (CharAt var60 346)))
(assert (= "}" (CharAt var10 513)))
(assert (= "1" (CharAt var12 159)))
(assert (= "H" (CharAt var12 859)))
(assert (= "4" (CharAt var26 888)))
(assert (= "h" (CharAt var45 192)))
(assert (= "]" (CharAt var0 116)))
(assert (= "l" (CharAt var52 215)))
(assert (= "=" (CharAt var56 809)))
(assert (= "e" (CharAt var36 686)))
(assert (= "-" (CharAt var54 266)))
(assert (= "g" (CharAt var52 866)))
(assert (= "E" (CharAt var37 983)))
(assert (= "p" (CharAt var48 374)))
(assert (= "I" (CharAt var19 825)))
(assert (= "d" (CharAt var38 46)))
(assert (= "Y" (CharAt var60 378)))
(assert (= "]" (CharAt var15 515)))
(assert (= "(" (CharAt var54 504)))
(assert (= "v" (CharAt var36 670)))
(assert (= ":" (CharAt var37 416)))
(assert (= "!" (CharAt var23 379)))
(assert (= "E" (CharAt var55 644)))
(assert (= "/" (CharAt var60 376)))
(assert (= "F" (CharAt var44 561)))
(assert (= "B" (CharAt var34 611)))
(assert (= "L" (CharAt var50 611)))
(assert (= "/" (CharAt var13 240)))
(assert (= "@" (CharAt var2 966)))
(assert (= "+" (CharAt var16 889)))
(assert (= "!" (CharAt var28 824)))
(assert (= "q" (CharAt var23 532)))
(assert (= "v" (CharAt var38 796)))
(assert (= "\\" (CharAt var18 735)))
(assert (= "e" (CharAt var12 576)))
(assert (= "g" (CharAt var43 646)))
(assert (= "Y" (CharAt var54 393)))
(assert (= "i" (CharAt var46 131)))
(assert (= "d" (CharAt var54 957)))
(assert (= "S" (CharAt var36 852)))
(assert (= "E" (CharAt var14 573)))
(assert (= "I" (CharAt var38 189)))
(assert (= "W" (CharAt var47 53)))
(assert (= "J" (CharAt var11 190)))
(assert (= "2" (CharAt var19 217)))
(assert (= "`" (CharAt var6 144)))
(assert (= "." (CharAt var9 949)))
(assert (= "r" (CharAt var5 223)))
(assert (= "y" (CharAt var40 233)))
(assert (= "\"" (CharAt var28 240)))
(assert (= "q" (CharAt var43 971)))
(assert (= "k" (CharAt var8 335)))
(assert (= "n" (CharAt var15 120)))
(assert (= "j" (CharAt var38 759)))
(assert (= "I" (CharAt var60 362)))
(assert (= "V" (CharAt var22 790)))
(assert (= "4" (CharAt var54 305)))
(assert (= "g" (CharAt var49 780)))
(assert (= "@" (CharAt var48 144)))
(assert (= "1" (CharAt var50 191)))
(assert (= "\"" (CharAt var30 271)))
(assert (= "]" (CharAt var42 164)))
(assert (= "[" (CharAt var29 449)))
(assert (= "{" (CharAt var11 878)))
(assert (= "3" (CharAt var52 987)))
(assert (= "z" (CharAt var57 422)))
(assert (= "7" (CharAt var51 646)))
(assert (= "+" (CharAt var42 532)))
(assert (= "G" (CharAt var18 897)))
(assert (= "$" (CharAt var0 352)))
(assert (= "u" (CharAt var24 22)))
(assert (= "3" (CharAt var50 792)))
(assert (= "P" (CharAt var0 210)))
(assert (= "S" (CharAt var56 537)))
(assert (= "Q" (CharAt var3 662)))
(assert (= "H" (CharAt var14 513)))
(assert (= "!" (CharAt var5 856)))
(assert (= ")" (CharAt var40 378)))
(assert (= "u" (CharAt var19 597)))
(assert (= "\\" (CharAt var14 842)))
(assert (= "8" (CharAt var51 214)))
(assert (= "l" (CharAt var38 467)))
(assert (= "}" (CharAt var17 39)))
(assert (= "0" (CharAt var44 718)))
(assert (= "i" (CharAt var23 29)))
(assert (= "8" (CharAt var40 547)))
(assert (= ":" (CharAt var16 390)))
(assert (= "8" (CharAt var55 484)))
(assert (= "l" (CharAt var40 836)))
(assert (= "G" (CharAt var54 446)))
(assert (= "l" (CharAt var51 192)))
(assert (= "4" (CharAt var14 309)))
(assert (= "@" (CharAt var30 496)))
(assert (= "^" (CharAt var39 384)))
(assert (= "A" (CharAt var60 248)))
(assert (= "g" (CharAt var12 833)))
(assert (= "i" (CharAt var35 535)))
(assert (= "5" (CharAt var49 564)))
(assert (= "l" (CharAt var28 466)))
(assert (= "j" (CharAt var22 117)))
(assert (= "\"" (CharAt var29 273)))
(assert (= "J" (CharAt var51 476)))
(assert (= "U" (CharAt var6 889)))
(assert (= "m" (CharAt var22 252)))
(assert (= "\\" (CharAt var21 45)))
(assert (= "Y" (CharAt var54 861)))
(assert (= "E" (CharAt var39 929)))
(assert (= "Z" (CharAt var19 15)))
(assert (= "e" (CharAt var14 705)))
(assert (= "f" (CharAt var17 842)))
(assert (= "\"" (CharAt var19 749)))
(assert (= "h" (CharAt var10 58)))
(assert (= "y" (CharAt var24 436)))
(assert (= "2" (CharAt var45 226)))
(assert (= "e" (CharAt var43 379)))
(assert (= "v" (CharAt var26 846)))
(assert (= "S" (CharAt var55 672)))
(assert (= "^" (CharAt var58 661)))
(assert (= "<" (CharAt var59 348)))
(assert (= "Q" (CharAt var5 444)))
(assert (= "F" (CharAt var3 487)))
(assert (= "E" (CharAt var56 204)))
(assert (= ";" (CharAt var4 307)))
(assert (= "=" (CharAt var1 157)))
(assert (= "G" (CharAt var34 908)))
(assert (= "y" (CharAt var11 710)))
(assert (= "\"" (CharAt var43 242)))
(assert (= "?" (CharAt var24 144)))
(assert (= "!" (CharAt var51 249)))
(assert (= "S" (CharAt var1 744)))
(assert (= "*" (CharAt var17 520)))
(assert (= "9" (CharAt var51 964)))
(assert (= "}" (CharAt var22 159)))
(assert (= "\\" (CharAt var52 868)))
(assert (= "$" (CharAt var47 520)))
(assert (= "7" (CharAt var19 726)))
(assert (= "z" (CharAt var46 97)))
(assert (= "+" (CharAt var10 906)))
(assert (= "1" (CharAt var44 837)))
(assert (= "4" (CharAt var25 862)))
(assert (= "p" (CharAt var48 940)))
(assert (= "[" (CharAt var20 651)))
(assert (= "d" (CharAt var8 292)))
(assert (= "N" (CharAt var34 98)))
(assert (= "=" (CharAt var20 19)))
(assert (= "G" (CharAt var50 347)))
(assert (= "G" (CharAt var0 57)))
(assert (= "'" (CharAt var16 846)))
(assert (= "G" (CharAt var12 343)))
(assert (= "C" (CharAt var42 776)))
(assert (= "V" (CharAt var14 126)))
(assert (= "p" (CharAt var23 232)))
(assert (= "<" (CharAt var25 382)))
(assert (= "a" (CharAt var16 728)))
(assert (= "B" (CharAt var23 259)))
(assert (= "L" (CharAt var9 232)))
(assert (= "J" (CharAt var12 251)))
(assert (= "9" (CharAt var55 25)))
(assert (= "W" (CharAt var4 661)))
(assert (= "," (CharAt var49 585)))
(assert (= "(" (CharAt var16 473)))
(assert (= "H" (CharAt var14 615)))
(assert (= "q" (CharAt var26 494)))
(assert (= "@" (CharAt var27 752)))
(assert (= "'" (CharAt var49 929)))
(assert (= "s" (CharAt var60 978)))
(assert (= "+" (CharAt var47 449)))
(assert (= "M" (CharAt var16 312)))
(assert (= "]" (CharAt var44 504)))
(assert (= "x" (CharAt var22 248)))
(assert (= "G" (CharAt var29 623)))
(assert (= "D" (CharAt var37 56)))
(assert (= "f" (CharAt var18 497)))
(assert (= "N" (CharAt var31 218)))
(assert (= "4" (CharAt var7 931)))
(assert (= "p" (CharAt var35 732)))
(assert (= "b" (CharAt var28 354)))
(assert (= "6" (CharAt var47 628)))
(assert (= "!" (CharAt var60 808)))
(assert (= "3" (CharAt var22 836)))
(assert (= "b" (CharAt var17 721)))
(assert (= "r" (CharAt var42 202)))
(assert (= "," (CharAt var51 90)))
(assert (= "j" (CharAt var46 700)))
(assert (= "y" (CharAt var25 766)))
(assert (= "f" (CharAt var47 849)))
(assert (= "J" (CharAt var12 501)))
(assert (= "8" (CharAt var20 181)))
(assert (= "8" (CharAt var9 246)))
(assert (= "J" (CharAt var53 205)))
(assert (= "g" (CharAt var13 483)))
(assert (= "y" (CharAt var24 196)))
(assert (= "8" (CharAt var34 652)))
(assert (= "l" (CharAt var41 76)))
(assert (= "0" (CharAt var27 624)))
(assert (= "[" (CharAt var48 922)))
(assert (= "z" (CharAt var23 289)))
(assert (= "|" (CharAt var7 842)))
(assert (= "2" (CharAt var59 215)))
(assert (= "w" (CharAt var10 681)))
(assert (= "7" (CharAt var1 791)))
(assert (= "L" (CharAt var15 984)))
(assert (= "Y" (CharAt var12 207)))
(assert (= "s" (CharAt var52 842)))
(assert (= "g" (CharAt var14 525)))
(assert (= "o" (CharAt var54 91)))
(assert (= "$" (CharAt var45 704)))
(assert (= "{" (CharAt var51 396)))
(assert (= "3" (CharAt var34 27)))
(assert (= "i" (CharAt var23 103)))
(assert (= "," (CharAt var47 842)))
(assert (= "-" (CharAt var17 208)))
(assert (= "6" (CharAt var13 928)))
(assert (= "r" (CharAt var19 260)))
(assert (= "&" (CharAt var4 623)))
(assert (= "y" (CharAt var14 989)))
(assert (= "$" (CharAt var32 418)))
(assert (= "S" (CharAt var35 197)))
(assert (= "3" (CharAt var40 978)))
(assert (= "@" (CharAt var56 266)))
(assert (= "V" (CharAt var29 126)))
(assert (= "v" (CharAt var4 471)))
(assert (= "`" (CharAt var60 985)))
(assert (= "~" (CharAt var14 166)))
(assert (= "y" (CharAt var40 43)))
(assert (= "O" (CharAt var6 472)))
(assert (= "+" (CharAt var46 246)))
(assert (= "$" (CharAt var15 762)))
(assert (= "~" (CharAt var35 74)))
(assert (= "|" (CharAt var23 228)))
(assert (= "#" (CharAt var33 15)))
(assert (= "w" (CharAt var59 710)))
(assert (= "V" (CharAt var23 876)))
(assert (= ";" (CharAt var15 283)))
(assert (= "]" (CharAt var34 43)))
(assert (= "o" (CharAt var45 90)))
(assert (= "6" (CharAt var16 240)))
(assert (= "_" (CharAt var48 518)))
(assert (= "[" (CharAt var41 466)))
(assert (= "J" (CharAt var17 704)))
(assert (= "." (CharAt var40 1000)))
(assert (= "Y" (CharAt var53 678)))
(assert (= "G" (CharAt var28 679)))
(assert (= "K" (CharAt var55 340)))
(assert (= "O" (CharAt var30 218)))
(assert (= "]" (CharAt var9 626)))
(assert (= "V" (CharAt var21 178)))
(assert (= "G" (CharAt var50 19)))
(assert (= "B" (CharAt var53 49)))
(assert (= "Q" (CharAt var28 711)))
(assert (= "v" (CharAt var57 145)))
(assert (= "R" (CharAt var44 944)))
(assert (= "?" (CharAt var37 229)))
(assert (= "S" (CharAt var1 660)))
(assert (= "*" (CharAt var5 67)))
(assert (= "O" (CharAt var23 324)))
(assert (= "u" (CharAt var46 968)))
(assert (= "+" (CharAt var34 355)))
(assert (= "X" (CharAt var7 480)))
(assert (= "F" (CharAt var39 745)))
(assert (= "a" (CharAt var27 245)))
(assert (= "v" (CharAt var54 2)))
(assert (= "l" (CharAt var43 948)))
(assert (= "=" (CharAt var36 123)))
(assert (= "b" (CharAt var46 284)))
(assert (= "P" (CharAt var17 113)))
(assert (= "T" (CharAt var2 638)))
(assert (= "O" (CharAt var59 996)))
(assert (= "V" (CharAt var17 627)))
(assert (= "#" (CharAt var37 17)))
(assert (= "F" (CharAt var9 319)))
(assert (= "p" (CharAt var29 714)))
(assert (= "B" (CharAt var33 199)))
(assert (= "B" (CharAt var58 274)))
(assert (= "," (CharAt var6 208)))
(assert (= "G" (CharAt var56 918)))
(assert (= "u" (CharAt var53 133)))
(assert (= "M" (CharAt var40 208)))
(assert (= "?" (CharAt var23 32)))
(assert (= "t" (CharAt var39 199)))
(assert (= "9" (CharAt var36 747)))
(assert (= "r" (CharAt var23 733)))
(assert (= "e" (CharAt var40 736)))
(assert (= "D" (CharAt var49 590)))
(assert (= "+" (CharAt var53 608)))
(assert (= "B" (CharAt var45 994)))
(assert (= "q" (CharAt var34 734)))
(assert (= "!" (CharAt var37 578)))
(assert (= "i" (CharAt var54 54)))
(assert (= "I" (CharAt var24 133)))
(assert (= "+" (CharAt var60 117)))
(assert (= "i" (CharAt var26 776)))
(assert (= "B" (CharAt var58 678)))
(assert (= "[" (CharAt var47 282)))
(assert (= "b" (CharAt var60 205)))
(assert (= "'" (CharAt var5 768)))
(assert (= "2" (CharAt var50 645)))
(assert (= "V" (CharAt var39 484)))
(assert (= "T" (CharAt var3 263)))
(assert (= "h" (CharAt var6 509)))
(assert (= "%" (CharAt var27 571)))
(assert (= "j" (CharAt var39 671)))
(assert (= "E" (CharAt var43 973)))
(assert (= "M" (CharAt var40 42)))
(assert (= "V" (CharAt var22 334)))
(assert (= "r" (CharAt var0 686)))
(assert (= "Z" (CharAt var34 51)))
(assert (= "i" (CharAt var36 429)))
(assert (= "l" (CharAt var50 133)))
(assert (= "v" (CharAt var58 583)))
(assert (= "Q" (CharAt var1 949)))
(assert (= "C" (CharAt var36 459)))
(assert (= "U" (CharAt var26 971)))
(assert (= "z" (CharAt var48 40)))
(assert (= "=" (CharAt var18 994)))
(assert (= "Z" (CharAt var21 73)))
(assert (= ":" (CharAt var15 706)))
(assert (= "N" (CharAt var57 978)))
(assert (= "}" (CharAt var10 92)))
(assert (= ")" (CharAt var24 210)))
(assert (= "T" (CharAt var21 279)))
(assert (= ")" (CharAt var9 578)))
(assert (= "r" (CharAt var49 711)))
(assert (= "u" (CharAt var43 761)))
(assert (= "%" (CharAt var6 836)))
(assert (= "q" (CharAt var5 247)))
(assert (= "c" (CharAt var50 604)))
(assert (= ")" (CharAt var59 119)))
(assert (= "/" (CharAt var4 730)))
(assert (= "u" (CharAt var28 957)))
(assert (= "k" (CharAt var8 546)))
(assert (= "\\" (CharAt var46 562)))
(assert (= "'" (CharAt var46 302)))
(assert (= "c" (CharAt var28 331)))
(assert (= "f" (CharAt var7 450)))
(assert (= "a" (CharAt var33 326)))
(assert (= "<" (CharAt var44 634)))
(assert (= "G" (CharAt var44 232)))
(assert (= "[" (CharAt var50 287)))
(assert (= "=" (CharAt var53 763)))
(assert (= "y" (CharAt var14 324)))
(assert (= "x" (CharAt var43 900)))
(assert (= "`" (CharAt var4 105)))
(assert (= "1" (CharAt var39 487)))
(assert (= "F" (CharAt var39 448)))
(assert (= "Q" (CharAt var18 778)))
(assert (= "S" (CharAt var48 305)))
(assert (= "=" (CharAt var20 730)))
(assert (= "R" (CharAt var1 826)))
(assert (= "R" (CharAt var11 846)))
(assert (= "n" (CharAt var20 269)))
(assert (= "z" (CharAt var29 831)))
(assert (= "R" (CharAt var19 955)))
(assert (= "M" (CharAt var28 699)))
(assert (= "l" (CharAt var19 881)))
(assert (= "R" (CharAt var24 81)))
(assert (= "A" (CharAt var54 747)))
(assert (= "j" (CharAt var17 912)))
(assert (= "8" (CharAt var28 78)))
(assert (= "n" (CharAt var39 668)))
(assert (= "n" (CharAt var32 650)))
(assert (= "j" (CharAt var36 364)))
(assert (= "N" (CharAt var24 60)))
(assert (= "P" (CharAt var41 38)))
(assert (= "\\" (CharAt var2 186)))
(assert (= "{" (CharAt var59 532)))
(assert (= "(" (CharAt var41 896)))
(assert (= "1" (CharAt var6 642)))
(assert (= "4" (CharAt var54 592)))
(assert (= "~" (CharAt var38 77)))
(assert (= "[" (CharAt var44 799)))
(assert (= "F" (CharAt var34 330)))
(assert (= "~" (CharAt var1 634)))
(assert (= "," (CharAt var56 591)))
(assert (= "{" (CharAt var33 967)))
(assert (= "=" (CharAt var20 87)))
(assert (= "Y" (CharAt var38 431)))
(assert (= "O" (CharAt var56 936)))
(assert (= "P" (CharAt var3 879)))
(assert (= "!" (CharAt var17 421)))
(assert (= "S" (CharAt var22 381)))
(assert (= "q" (CharAt var45 590)))
(assert (= "Y" (CharAt var10 702)))
(assert (= "u" (CharAt var53 984)))
(assert (= "}" (CharAt var54 992)))
(assert (= "/" (CharAt var14 906)))
(assert (= "i" (CharAt var33 141)))
(assert (= "_" (CharAt var59 252)))
(assert (= "6" (CharAt var19 145)))
(assert (= "[" (CharAt var5 898)))
(assert (= "2" (CharAt var4 917)))
(assert (= "|" (CharAt var32 661)))
(assert (= "W" (CharAt var8 126)))
(assert (= "^" (CharAt var1 247)))
(assert (= "<" (CharAt var48 898)))
(assert (= ">" (CharAt var39 751)))
(assert (= "a" (CharAt var6 510)))
(assert (= "H" (CharAt var50 442)))
(assert (= "r" (CharAt var4 745)))
(assert (= "'" (CharAt var3 108)))
(assert (= "\\" (CharAt var28 180)))
(assert (= "q" (CharAt var3 236)))
(assert (= ">" (CharAt var41 809)))
(assert (= "Y" (CharAt var39 783)))
(assert (= "9" (CharAt var29 862)))
(assert (= "@" (CharAt var60 839)))
(assert (= "W" (CharAt var19 209)))
(assert (= "J" (CharAt var14 770)))
(assert (= "7" (CharAt var42 295)))
(assert (= "L" (CharAt var46 963)))
(assert (= "c" (CharAt var22 788)))
(assert (= "x" (CharAt var29 977)))
(assert (= "c" (CharAt var50 175)))
(assert (= "~" (CharAt var55 392)))
(assert (= "@" (CharAt var28 65)))
(assert (= "j" (CharAt var25 899)))
(assert (= "z" (CharAt var35 423)))
(assert (= "P" (CharAt var52 489)))
(assert (= "x" (CharAt var16 558)))
(assert (= "E" (CharAt var26 612)))
(assert (= "r" (CharAt var58 943)))
(assert (= "g" (CharAt var7 903)))
(assert (= "E" (CharAt var14 243)))
(assert (= "B" (CharAt var43 741)))
(assert (= "m" (CharAt var10 368)))
(assert (= "." (CharAt var9 698)))
(assert (= "N" (CharAt var11 354)))
(assert (= "v" (CharAt var9 472)))
(assert (= "}" (CharAt var55 325)))
(assert (= ";" (CharAt var7 821)))
(assert (= "D" (CharAt var17 777)))
(assert (= "S" (CharAt var8 688)))
(assert (= "G" (CharAt var25 765)))
(assert (= "H" (CharAt var18 997)))
(assert (= "{" (CharAt var31 281)))
(assert (= ")" (CharAt var41 952)))
(assert (= "=" (CharAt var60 504)))
(assert (= "E" (CharAt var31 116)))
(assert (= "^" (CharAt var0 901)))
(assert (= "|" (CharAt var59 868)))
(assert (= "h" (CharAt var31 804)))
(assert (= "]" (CharAt var5 565)))
(assert (= ">" (CharAt var51 723)))
(assert (= "M" (CharAt var35 806)))
(assert (= "P" (CharAt var27 667)))
(assert (= "_" (CharAt var56 561)))
(assert (= "~" (CharAt var50 920)))
(assert (= "o" (CharAt var60 171)))
(assert (= "Z" (CharAt var16 643)))
(assert (= "V" (CharAt var58 389)))
(assert (= ";" (CharAt var30 592)))
(assert (= "#" (CharAt var16 824)))
(assert (= "." (CharAt var50 217)))
(assert (= "~" (CharAt var37 287)))
(assert (= "X" (CharAt var54 322)))
(assert (= "l" (CharAt var16 856)))
(assert (= "S" (CharAt var2 250)))
(assert (= "v" (CharAt var3 238)))
(assert (= "M" (CharAt var45 183)))
(assert (= "f" (CharAt var2 298)))
(assert (= "]" (CharAt var28 556)))
(assert (= "j" (CharAt var45 919)))
(assert (= "p" (CharAt var52 159)))
(assert (= "," (CharAt var57 126)))
(assert (= "a" (CharAt var50 680)))
(assert (= "y" (CharAt var47 389)))
(assert (= "V" (CharAt var0 281)))
(assert (= "/" (CharAt var18 108)))
(assert (= "W" (CharAt var53 499)))
(assert (= "n" (CharAt var9 6)))
(assert (= "b" (CharAt var29 573)))
(assert (= "`" (CharAt var59 255)))
(assert (= ")" (CharAt var0 678)))
(assert (= "`" (CharAt var10 712)))
(assert (= "]" (CharAt var26 43)))
(assert (= "1" (CharAt var46 210)))
(assert (= "Q" (CharAt var23 931)))
(assert (= "v" (CharAt var47 316)))
(assert (= "c" (CharAt var33 14)))
(assert (= "6" (CharAt var53 207)))
(assert (= "!" (CharAt var15 680)))
(assert (= "7" (CharAt var9 728)))
(assert (= "B" (CharAt var23 193)))
(assert (= "X" (CharAt var23 248)))
(assert (= "M" (CharAt var58 783)))
(assert (= "*" (CharAt var58 462)))
(assert (= "z" (CharAt var46 357)))
(assert (= "$" (CharAt var58 233)))
(assert (= "'" (CharAt var36 262)))
(assert (= ")" (CharAt var27 243)))
(assert (= "J" (CharAt var25 660)))
(assert (= "3" (CharAt var34 87)))
(assert (= "!" (CharAt var6 991)))
(assert (= "X" (CharAt var6 98)))
(assert (= "A" (CharAt var53 23)))
(assert (= "o" (CharAt var28 688)))
(assert (= "%" (CharAt var4 754)))
(assert (= "%" (CharAt var26 897)))
(assert (= "n" (CharAt var18 911)))
(assert (= "W" (CharAt var17 515)))
(assert (= "C" (CharAt var12 430)))
(assert (= "`" (CharAt var26 982)))
(assert (= "z" (CharAt var58 401)))
(assert (= "=" (CharAt var38 936)))
(assert (= "`" (CharAt var25 631)))
(assert (= "f" (CharAt var36 247)))
(assert (= "&" (CharAt var36 477)))
(assert (= "C" (CharAt var47 244)))
(assert (= "R" (CharAt var35 499)))
(assert (= "u" (CharAt var9 362)))
(assert (= "+" (CharAt var23 129)))
(assert (= "y" (CharAt var56 277)))
(assert (= ">" (CharAt var43 391)))
(assert (= "e" (CharAt var29 33)))
(assert (= "T" (CharAt var26 959)))
(assert (= "5" (CharAt var30 489)))
(assert (= "k" (CharAt var49 376)))
(assert (= "8" (CharAt var53 810)))
(assert (= "3" (CharAt var56 181)))
(assert (= "G" (CharAt var19 281)))
(assert (= "J" (CharAt var48 391)))
(assert (= "." (CharAt var37 709)))
(assert (= "W" (CharAt var24 377)))
(assert (= "T" (CharAt var4 709)))
(assert (= "p" (CharAt var5 578)))
(assert (= "D" (CharAt var48 124)))
(assert (= "m" (CharAt var49 986)))
(assert (= "X" (CharAt var16 308)))
(assert (= "A" (CharAt var3 830)))
(assert (= "s" (CharAt var33 733)))
(assert (= "@" (CharAt var53 712)))
(assert (= "W" (CharAt var56 146)))
(assert (= "=" (CharAt var6 551)))
(assert (= "e" (CharAt var60 630)))
(assert (= "x" (CharAt var50 985)))
(assert (= "D" (CharAt var21 626)))
(assert (= "h" (CharAt var17 902)))
(assert (= "z" (CharAt var4 523)))
(assert (= "z" (CharAt var8 59)))
(assert (= "*" (CharAt var58 108)))
(assert (= "r" (CharAt var10 290)))
(assert (= "9" (CharAt var6 567)))
(assert (= "6" (CharAt var25 226)))
(assert (= "m" (CharAt var36 934)))
(assert (= "s" (CharAt var57 617)))
(assert (= "h" (CharAt var40 407)))
(assert (= "_" (CharAt var58 350)))
(assert (= "Z" (CharAt var28 85)))
(assert (= "F" (CharAt var54 530)))
(assert (= "|" (CharAt var29 681)))
(assert (= "Z" (CharAt var36 820)))
(assert (= "1" (CharAt var15 204)))
(assert (= "F" (CharAt var19 200)))
(assert (= "f" (CharAt var23 76)))
(assert (= "I" (CharAt var59 591)))
(assert (= "!" (CharAt var13 34)))
(assert (= "U" (CharAt var16 700)))
(assert (= "S" (CharAt var12 293)))
(assert (= "@" (CharAt var30 461)))
(assert (= "1" (CharAt var6 767)))
(assert (= "E" (CharAt var22 295)))
(assert (= "F" (CharAt var60 610)))
(assert (= "}" (CharAt var13 59)))
(assert (= "~" (CharAt var60 960)))
(assert (= "L" (CharAt var0 309)))
(assert (= "*" (CharAt var32 528)))
(assert (= "7" (CharAt var42 211)))
(assert (= "&" (CharAt var20 370)))
(assert (= "@" (CharAt var3 738)))
(assert (= "1" (CharAt var18 664)))
(assert (= "&" (CharAt var51 179)))
(assert (= "|" (CharAt var42 949)))
(assert (= "S" (CharAt var8 106)))
(assert (= "u" (CharAt var14 664)))
(assert (= "U" (CharAt var17 220)))
(assert (= "n" (CharAt var11 656)))
(assert (= "." (CharAt var35 919)))
(assert (= "*" (CharAt var18 540)))
(assert (= "b" (CharAt var47 461)))
(assert (= "f" (CharAt var19 109)))
(assert (= "F" (CharAt var9 363)))
(assert (= "&" (CharAt var38 826)))
(assert (= "!" (CharAt var59 829)))
(assert (= "o" (CharAt var13 404)))
(assert (= "w" (CharAt var3 618)))
(assert (= "r" (CharAt var44 736)))
(assert (= "r" (CharAt var55 46)))
(assert (= "S" (CharAt var24 765)))
(assert (= "]" (CharAt var9 807)))
(assert (= "-" (CharAt var59 72)))
(assert (= ")" (CharAt var36 788)))
(assert (= "m" (CharAt var38 96)))
(assert (= "=" (CharAt var32 295)))
(assert (= "$" (CharAt var33 793)))
(assert (= "`" (CharAt var39 506)))
(assert (= "s" (CharAt var31 972)))
(assert (= "M" (CharAt var59 770)))
(assert (= "&" (CharAt var41 936)))
(assert (= "G" (CharAt var45 346)))
(assert (= "[" (CharAt var37 205)))
(assert (= "^" (CharAt var51 52)))
(assert (= ":" (CharAt var32 271)))
(assert (= "w" (CharAt var57 771)))
(assert (= "'" (CharAt var11 625)))
(assert (= "P" (CharAt var31 443)))
(assert (= "f" (CharAt var12 504)))
(assert (= "b" (CharAt var18 259)))
(assert (= "%" (CharAt var7 514)))
(assert (= "p" (CharAt var50 515)))
(assert (= "+" (CharAt var8 719)))
(assert (= ":" (CharAt var48 390)))
(assert (= "K" (CharAt var45 881)))
(assert (= "X" (CharAt var43 984)))
(assert (= "x" (CharAt var16 180)))
(assert (= "/" (CharAt var26 300)))
(assert (= "O" (CharAt var46 470)))
(assert (= "v" (CharAt var47 731)))
(assert (= "f" (CharAt var4 585)))
(assert (= "*" (CharAt var54 545)))
(assert (= ":" (CharAt var5 421)))
(assert (= "!" (CharAt var12 597)))
(assert (= "u" (CharAt var56 775)))
(assert (= "n" (CharAt var13 42)))
(assert (= "h" (CharAt var3 645)))
(assert (= "k" (CharAt var1 392)))
(assert (= "n" (CharAt var50 907)))
(assert (= "s" (CharAt var40 101)))
(assert (= "T" (CharAt var5 50)))
(assert (= "o" (CharAt var19 727)))
(assert (= "<" (CharAt var52 751)))
(assert (= "n" (CharAt var60 584)))
(assert (= "p" (CharAt var57 623)))
(assert (= "Y" (CharAt var18 643)))
(assert (= ">" (CharAt var25 395)))
(assert (= "q" (CharAt var26 215)))
(assert (= "~" (CharAt var40 73)))
(assert (= "$" (CharAt var39 288)))
(assert (= "A" (CharAt var45 23)))
(assert (= "m" (CharAt var39 662)))
(assert (= "/" (CharAt var38 156)))
(assert (= "\"" (CharAt var49 139)))
(assert (= "!" (CharAt var56 148)))
(assert (= "o" (CharAt var1 218)))
(assert (= ")" (CharAt var34 632)))
(assert (= "\"" (CharAt var8 99)))
(assert (= "Z" (CharAt var47 385)))
(assert (= "?" (CharAt var13 539)))
(assert (= "x" (CharAt var8 38)))
(assert (= "U" (CharAt var16 503)))
(assert (= "X" (CharAt var60 799)))
(assert (= "^" (CharAt var41 892)))
(assert (= "p" (CharAt var37 251)))
(assert (= "%" (CharAt var6 689)))
(assert (= "K" (CharAt var47 891)))
(assert (= "e" (CharAt var34 326)))
(assert (= ";" (CharAt var48 418)))
(assert (= "^" (CharAt var28 906)))
(assert (= "c" (CharAt var8 181)))
(assert (= "s" (CharAt var32 862)))
(assert (= "N" (CharAt var39 46)))
(assert (= "p" (CharAt var29 953)))
(assert (= "]" (CharAt var46 475)))
(assert (= "n" (CharAt var41 197)))
(assert (= "U" (CharAt var55 491)))
(assert (= "k" (CharAt var36 339)))
(assert (= "k" (CharAt var32 184)))
(assert (= ">" (CharAt var38 171)))
(assert (= "w" (CharAt var22 850)))
(assert (= "c" (CharAt var49 406)))
(assert (= "K" (CharAt var26 127)))
(assert (= "'" (CharAt var37 364)))
(assert (= ")" (CharAt var16 739)))
(assert (= "b" (CharAt var50 127)))
(assert (= "A" (CharAt var9 485)))
(assert (= "K" (CharAt var30 629)))
(assert (= "7" (CharAt var0 873)))
(assert (= "B" (CharAt var42 648)))
(assert (= "[" (CharAt var16 213)))
(assert (= "<" (CharAt var5 362)))
(assert (= "Y" (CharAt var3 586)))
(assert (= "$" (CharAt var41 944)))
(assert (= "#" (CharAt var35 699)))
(assert (= "9" (CharAt var37 427)))
(assert (= "'" (CharAt var37 676)))
(assert (= "P" (CharAt var47 976)))
(assert (= "#" (CharAt var5 445)))
(assert (= "9" (CharAt var22 94)))
(assert (= "~" (CharAt var42 172)))
(assert (= "\"" (CharAt var19 474)))
(assert (= "Z" (CharAt var60 458)))
(assert (= "Q" (CharAt var3 427)))
(assert (= "{" (CharAt var47 642)))
(assert (= "1" (CharAt var47 63)))
(assert (= "#" (CharAt var50 958)))
(assert (= "G" (CharAt var10 324)))
(assert (= "L" (CharAt var14 393)))
(assert (= "%" (CharAt var52 0)))
(assert (= "c" (CharAt var39 452)))
(assert (= ";" (CharAt var58 859)))
(assert (= "^" (CharAt var33 757)))
(assert (= "9" (CharAt var38 656)))
(assert (= "%" (CharAt var18 677)))
(assert (= "(" (CharAt var48 763)))
(assert (= "H" (CharAt var53 780)))
(assert (= "B" (CharAt var7 277)))
(assert (= "9" (CharAt var9 345)))
(assert (= "B" (CharAt var17 327)))
(assert (= "H" (CharAt var2 896)))
(assert (= "c" (CharAt var42 889)))
(assert (= "g" (CharAt var7 16)))
(assert (= "Q" (CharAt var13 872)))
(assert (= ">" (CharAt var42 644)))
(assert (= "V" (CharAt var49 703)))
(assert (= "3" (CharAt var35 341)))
(assert (= "K" (CharAt var43 337)))
(assert (= "g" (CharAt var44 597)))
(assert (= "E" (CharAt var17 971)))
(assert (= "`" (CharAt var29 719)))
(assert (= "O" (CharAt var32 507)))
(assert (= "%" (CharAt var46 514)))
(assert (= "r" (CharAt var54 509)))
(assert (= "C" (CharAt var21 951)))
(assert (= "S" (CharAt var22 815)))
(assert (= "g" (CharAt var31 18)))
(assert (= "2" (CharAt var7 590)))
(assert (= "k" (CharAt var28 377)))
(assert (= "O" (CharAt var7 83)))
(assert (= ">" (CharAt var57 690)))
(assert (= "L" (CharAt var38 598)))
(assert (= "N" (CharAt var4 985)))
(assert (= "H" (CharAt var57 333)))
(assert (= "V" (CharAt var24 388)))
(assert (= "v" (CharAt var31 507)))
(assert (= "~" (CharAt var24 826)))
(assert (= "`" (CharAt var4 684)))
(assert (= "q" (CharAt var41 173)))
(assert (= "N" (CharAt var36 738)))
(assert (= "<" (CharAt var45 911)))
(assert (= "/" (CharAt var19 655)))
(assert (= "P" (CharAt var37 653)))
(assert (= "m" (CharAt var37 350)))
(assert (= "\"" (CharAt var28 716)))
(assert (= "z" (CharAt var4 800)))
(assert (= "g" (CharAt var13 714)))
(assert (= "Q" (CharAt var35 825)))
(assert (= "I" (CharAt var30 806)))
(assert (= "~" (CharAt var42 125)))
(assert (= "\\" (CharAt var45 281)))
(assert (= "y" (CharAt var44 460)))
(assert (= "4" (CharAt var58 600)))
(assert (= "]" (CharAt var3 620)))
(assert (= ">" (CharAt var5 814)))
(assert (= "\\" (CharAt var20 255)))
(assert (= "F" (CharAt var8 352)))
(assert (= "<" (CharAt var21 694)))
(assert (= "2" (CharAt var7 572)))
(assert (= "3" (CharAt var56 634)))
(assert (= "A" (CharAt var59 731)))
(assert (= "Y" (CharAt var60 87)))
(assert (= "C" (CharAt var9 869)))
(assert (= "D" (CharAt var0 473)))
(assert (= "f" (CharAt var9 322)))
(assert (= "2" (CharAt var60 655)))
(assert (= "B" (CharAt var9 760)))
(assert (= "?" (CharAt var32 307)))
(assert (= "}" (CharAt var26 195)))
(assert (= "f" (CharAt var16 479)))
(assert (= "7" (CharAt var32 126)))
(assert (= "a" (CharAt var24 845)))
(assert (= "e" (CharAt var15 245)))
(assert (= "^" (CharAt var7 692)))
(assert (= "m" (CharAt var2 965)))
(assert (= "O" (CharAt var24 354)))
(assert (= "G" (CharAt var43 677)))
(assert (= "*" (CharAt var19 457)))
(assert (= "m" (CharAt var36 541)))
(assert (= "T" (CharAt var58 456)))
(assert (= "f" (CharAt var16 295)))
(assert (= "&" (CharAt var1 743)))
(assert (= "`" (CharAt var32 198)))
(assert (= "B" (CharAt var52 334)))
(assert (= "Y" (CharAt var10 292)))
(assert (= "S" (CharAt var12 999)))
(assert (= "W" (CharAt var44 174)))
(assert (= "!" (CharAt var60 78)))
(assert (= "+" (CharAt var59 872)))
(assert (= "]" (CharAt var26 935)))
(assert (= "*" (CharAt var58 227)))
(assert (= "8" (CharAt var41 178)))
(assert (= "|" (CharAt var18 242)))
(assert (= "u" (CharAt var9 416)))
(assert (= "?" (CharAt var2 407)))
(assert (= "n" (CharAt var35 407)))
(assert (= "V" (CharAt var3 705)))
(assert (= "+" (CharAt var44 484)))
(assert (= "G" (CharAt var40 311)))
(assert (= "E" (CharAt var23 224)))
(assert (= "2" (CharAt var42 165)))
(assert (= "U" (CharAt var10 133)))
(assert (= "W" (CharAt var9 259)))
(assert (= "g" (CharAt var46 659)))
(assert (= "Q" (CharAt var2 369)))
(assert (= "m" (CharAt var37 266)))
(assert (= "t" (CharAt var26 529)))
(assert (= "w" (CharAt var36 337)))
(assert (= ":" (CharAt var51 439)))
(check-sat)